500
    1    50    50
    2    18    18
    3    26    26
    4     1     1
    5    26    26
    6    18    18
    7    29    29
    8    44    44
    9    14    14
   10    46    46
   11    18    18
   12    15    15
   13     1     1
   14    16    16
   15    30    30
   16     2     2
   17    43    43
   18    47    47
   19    16    16
   20     3     3
   21    22    22
   22    21    21
   23    47    47
   24    49    49
   25    10    10
   26     9     9
   27    32    32
   28    20    20
   29    33    33
   30    31    31
   31    19    19
   32    44    44
   33    43    43
   34    32    32
   35    12    12
   36    24    24
   37     1     1
   38    23    23
   39    24    24
   40     8     8
   41     7     7
   42    50    50
   43    20    20
   44    11    11
   45    46    46
   46    42    42
   47    25    25
   48    38    38
   49     1     1
   50     1     1
   51    42    42
   52    43    43
   53     8     8
   54    12    12
   55    38    38
   56     8     8
   57    38    38
   58    48    48
   59    25    25
   60    37    37
   61    50    50
   62    33    33
   63     6     6
   64    38    38
   65    16    16
   66     2     2
   67    25    25
   68    19    19
   69     4     4
   70    38    38
   71    41    41
   72    21    21
   73    22    22
   74    21    21
   75    31    31
   76    35    35
   77    44    44
   78    11    11
   79    39    39
   80    12    12
   81    27    27
   82    14    14
   83    38    38
   84    44    44
   85     6     6
   86    36    36
   87    40    40
   88    47    47
   89     3     3
   90    37    37
   91     9     9
   92    23    23
   93     2     2
   94    25    25
   95    40    40
   96    19    19
   97    19    19
   98    25    25
   99    12    12
  100    14    14
  101     3     3
  102    47    47
  103    24    24
  104     7     7
  105    31    31
  106    45    45
  107    44    44
  108    21    21
  109    13    13
  110    50    50
  111    10    10
  112    18    18
  113    33    33
  114    15    15
  115    19    19
  116    42    42
  117    38    38
  118     6     6
  119    36    36
  120    19    19
  121    29    29
  122    46    46
  123    33    33
  124    40    40
  125     6     6
  126     4     4
  127    21    21
  128    14    14
  129    42    42
  130     9     9
  131     6     6
  132     1     1
  133    39    39
  134    31    31
  135    15    15
  136    42    42
  137     4     4
  138    11    11
  139     2     2
  140    16    16
  141    18    18
  142     5     5
  143    14    14
  144     1     1
  145    50    50
  146    39    39
  147     3     3
  148    28    28
  149    36    36
  150    13    13
  151    35    35
  152    32    32
  153    37    37
  154    36    36
  155    31    31
  156    41    41
  157    47    47
  158    30    30
  159    13    13
  160    22    22
  161    16    16
  162    27    27
  163    14    14
  164     4     4
  165    39    39
  166    10    10
  167     6     6
  168    42    42
  169    22    22
  170    21    21
  171     6     6
  172    15    15
  173    12    12
  174    12    12
  175    10    10
  176    43    43
  177     2     2
  178    40    40
  179     1     1
  180    29    29
  181    37    37
  182    24    24
  183     7     7
  184     8     8
  185    17    17
  186     4     4
  187    40    40
  188    31    31
  189    30    30
  190    20    20
  191     9     9
  192    11    11
  193    39    39
  194    37    37
  195    27    27
  196    28    28
  197    50    50
  198    27    27
  199    24    24
  200    17    17
  201    31    31
  202    39    39
  203    44    44
  204    50    50
  205    44    44
  206    33    33
  207    46    46
  208    12    12
  209     9     9
  210    19    19
  211    38    38
  212     1     1
  213    13    13
  214    28    28
  215     5     5
  216    35    35
  217    43    43
  218    10    10
  219     3     3
  220    41    41
  221    35    35
  222    12    12
  223    17    17
  224    26    26
  225    49    49
  226    40    40
  227    31    31
  228    34    34
  229    47    47
  230    40    40
  231    39    39
  232    19    19
  233    15    15
  234    37    37
  235    45    45
  236    11    11
  237    49    49
  238    26    26
  239    47    47
  240    15    15
  241    38    38
  242    34    34
  243    49    49
  244    19    19
  245    42    42
  246    44    44
  247     7     7
  248     5     5
  249    11    11
  250    14    14
  251    41    41
  252    27    27
  253    10    10
  254    41    41
  255    24    24
  256    30    30
  257    19    19
  258    24    24
  259    15    15
  260    11    11
  261    34    34
  262    25    25
  263    49    49
  264    15    15
  265    11    11
  266     8     8
  267     6     6
  268    15    15
  269    15    15
  270    48    48
  271    18    18
  272    14    14
  273    47    47
  274    49    49
  275     7     7
  276     6     6
  277    34    34
  278     3     3
  279     4     4
  280    20    20
  281    29    29
  282     4     4
  283    31    31
  284    19    19
  285    25    25
  286    30    30
  287    47    47
  288    38    38
  289    35    35
  290     8     8
  291    40    40
  292    45    45
  293    34    34
  294     3     3
  295    19    19
  296     7     7
  297    11    11
  298    27    27
  299    30    30
  300     7     7
  301    45    45
  302    17    17
  303    49    49
  304    39    39
  305    36    36
  306     8     8
  307    12    12
  308    12    12
  309    12    12
  310     1     1
  311    36    36
  312    20    20
  313    24    24
  314    44    44
  315     3     3
  316    27    27
  317     6     6
  318    40    40
  319    31    31
  320    15    15
  321    27    27
  322    47    47
  323    41    41
  324    22    22
  325    28    28
  326    42    42
  327    46    46
  328    45    45
  329    39    39
  330    11    11
  331    28    28
  332    43    43
  333    27    27
  334    19    19
  335     8     8
  336    34    34
  337    50    50
  338     4     4
  339    29    29
  340     3     3
  341    15    15
  342    17    17
  343    46    46
  344    38    38
  345     9     9
  346    36    36
  347    42    42
  348     2     2
  349    13    13
  350    27    27
  351     5     5
  352     2     2
  353    22    22
  354    19    19
  355    43    43
  356    24    24
  357     2     2
  358    42    42
  359    40    40
  360    31    31
  361    17    17
  362    27    27
  363     9     9
  364    50    50
  365    28    28
  366    11    11
  367    24    24
  368    31    31
  369    39    39
  370    25    25
  371    41    41
  372    36    36
  373    42    42
  374     3     3
  375    47    47
  376     8     8
  377    30    30
  378    20    20
  379     9     9
  380    39    39
  381    48    48
  382    13    13
  383    45    45
  384    36    36
  385     2     2
  386    36    36
  387    28    28
  388    50    50
  389    21    21
  390    40    40
  391     8     8
  392    26    26
  393    36    36
  394    31    31
  395    34    34
  396    14    14
  397     9     9
  398    29    29
  399    45    45
  400    12    12
  401    29    29
  402     8     8
  403    33    33
  404    34    34
  405     1     1
  406    42    42
  407    49    49
  408    44    44
  409    25    25
  410    46    46
  411    47    47
  412    29    29
  413    16    16
  414    31    31
  415    26    26
  416    20    20
  417    21    21
  418     2     2
  419     9     9
  420    19    19
  421    38    38
  422    39    39
  423    28    28
  424    23    23
  425    43    43
  426    47    47
  427    47    47
  428     7     7
  429    36    36
  430    22    22
  431    23    23
  432     3     3
  433     2     2
  434    37    37
  435    32    32
  436     3     3
  437     7     7
  438    14    14
  439    34    34
  440    33    33
  441     8     8
  442    28    28
  443    23    23
  444    25    25
  445    47    47
  446    14    14
  447    12    12
  448    11    11
  449    18    18
  450    37    37
  451    22    22
  452    14    14
  453    31    31
  454    18    18
  455    37    37
  456    40    40
  457    43    43
  458     1     1
  459     9     9
  460    43    43
  461    11    11
  462    22    22
  463    42    42
  464     9     9
  465    45    45
  466    40    40
  467    12    12
  468    16    16
  469    21    21
  470    32    32
  471     2     2
  472     9     9
  473     1     1
  474    41    41
  475     7     7
  476     3     3
  477    29    29
  478    14    14
  479    37    37
  480    37    37
  481    17    17
  482    17    17
  483    49    49
  484    35    35
  485    33    33
  486    46    46
  487    17    17
  488    44    44
  489    30    30
  490    16    16
  491    13    13
  492    32    32
  493    14    14
  494    14    14
  495     8     8
  496    37    37
  497    44    44
  498    21    21
  499    48    48
  500    16    16
4190
